p cnf 12 30
100
103
201 202 
301 302 
-101
-102
-201 -202
-301 -302
201 301 
202 302 
-200
-203
-300
-303
-100 201 -101 202 -102 203 -200 101 -201 102 -202 103 -100 301 -101 302 -102 303 -300 101 -301 102 -302 103 -200 301 -201 302 -202 303 -300 201 -301 202 -302 203 